p cnf 800 1522
1 2 0
-1 -2 0
3 4 0
-3 -4 0
5 6 0
-5 -6 0
7 8 0
-7 -8 0
9 10 0
-9 -10 0
11 12 0
-11 -12 0
13 14 0
-13 -14 0
15 16 0
-15 -16 0
17 18 0
-17 -18 0
19 20 0
-19 -20 0
21 22 0
-21 -22 0
23 24 0
-23 -24 0
25 26 0
-25 -26 0
27 28 0
-27 -28 0
29 30 0
-29 -30 0
31 32 0
-31 -32 0
33 34 0
-33 -34 0
35 36 0
-35 -36 0
37 38 0
-37 -38 0
39 40 0
-39 -40 0
41 42 0
-41 -42 0
43 44 0
-43 -44 0
45 46 0
-45 -46 0
47 48 0
-47 -48 0
49 50 0
-49 -50 0
51 52 0
-51 -52 0
53 54 0
-53 -54 0
55 56 0
-55 -56 0
57 58 0
-57 -58 0
59 60 0
-59 -60 0
61 62 0
-61 -62 0
63 64 0
-63 -64 0
65 66 0
-65 -66 0
67 68 0
-67 -68 0
69 70 0
-69 -70 0
71 72 0
-71 -72 0
73 74 0
-73 -74 0
75 76 0
-75 -76 0
77 78 0
-77 -78 0
79 80 0
-79 -80 0
81 82 0
-81 -82 0
83 84 0
-83 -84 0
85 86 0
-85 -86 0
87 88 0
-87 -88 0
89 90 0
-89 -90 0
91 92 0
-91 -92 0
93 94 0
-93 -94 0
95 96 0
-95 -96 0
97 98 0
-97 -98 0
99 100 0
-99 -100 0
101 102 0
-101 -102 0
103 104 0
-103 -104 0
105 106 0
-105 -106 0
107 108 0
-107 -108 0
109 110 0
-109 -110 0
111 112 0
-111 -112 0
113 114 0
-113 -114 0
115 116 0
-115 -116 0
117 118 0
-117 -118 0
119 120 0
-119 -120 0
121 122 0
-121 -122 0
123 124 0
-123 -124 0
125 126 0
-125 -126 0
127 128 0
-127 -128 0
129 130 0
-129 -130 0
131 132 0
-131 -132 0
133 134 0
-133 -134 0
135 136 0
-135 -136 0
137 138 0
-137 -138 0
139 140 0
-139 -140 0
141 142 0
-141 -142 0
143 144 0
-143 -144 0
145 146 0
-145 -146 0
147 148 0
-147 -148 0
149 150 0
-149 -150 0
151 152 0
-151 -152 0
153 154 0
-153 -154 0
155 156 0
-155 -156 0
157 158 0
-157 -158 0
159 160 0
-159 -160 0
161 162 0
-161 -162 0
163 164 0
-163 -164 0
165 166 0
-165 -166 0
167 168 0
-167 -168 0
169 170 0
-169 -170 0
171 172 0
-171 -172 0
173 174 0
-173 -174 0
175 176 0
-175 -176 0
177 178 0
-177 -178 0
179 180 0
-179 -180 0
181 182 0
-181 -182 0
183 184 0
-183 -184 0
185 186 0
-185 -186 0
187 188 0
-187 -188 0
189 190 0
-189 -190 0
191 192 0
-191 -192 0
193 194 0
-193 -194 0
195 196 0
-195 -196 0
197 198 0
-197 -198 0
199 200 0
-199 -200 0
201 202 0
-201 -202 0
203 204 0
-203 -204 0
205 206 0
-205 -206 0
207 208 0
-207 -208 0
209 210 0
-209 -210 0
211 212 0
-211 -212 0
213 214 0
-213 -214 0
215 216 0
-215 -216 0
217 218 0
-217 -218 0
219 220 0
-219 -220 0
221 222 0
-221 -222 0
223 224 0
-223 -224 0
225 226 0
-225 -226 0
227 228 0
-227 -228 0
229 230 0
-229 -230 0
231 232 0
-231 -232 0
233 234 0
-233 -234 0
235 236 0
-235 -236 0
237 238 0
-237 -238 0
239 240 0
-239 -240 0
241 242 0
-241 -242 0
243 244 0
-243 -244 0
245 246 0
-245 -246 0
247 248 0
-247 -248 0
249 250 0
-249 -250 0
251 252 0
-251 -252 0
253 254 0
-253 -254 0
255 256 0
-255 -256 0
257 258 0
-257 -258 0
259 260 0
-259 -260 0
261 262 0
-261 -262 0
263 264 0
-263 -264 0
265 266 0
-265 -266 0
267 268 0
-267 -268 0
269 270 0
-269 -270 0
271 272 0
-271 -272 0
273 274 0
-273 -274 0
275 276 0
-275 -276 0
277 278 0
-277 -278 0
279 280 0
-279 -280 0
281 282 0
-281 -282 0
283 284 0
-283 -284 0
285 286 0
-285 -286 0
287 288 0
-287 -288 0
289 290 0
-289 -290 0
291 292 0
-291 -292 0
293 294 0
-293 -294 0
295 296 0
-295 -296 0
297 298 0
-297 -298 0
299 300 0
-299 -300 0
301 302 0
-301 -302 0
303 304 0
-303 -304 0
305 306 0
-305 -306 0
307 308 0
-307 -308 0
309 310 0
-309 -310 0
311 312 0
-311 -312 0
313 314 0
-313 -314 0
315 316 0
-315 -316 0
317 318 0
-317 -318 0
319 320 0
-319 -320 0
321 322 0
-321 -322 0
323 324 0
-323 -324 0
325 326 0
-325 -326 0
327 328 0
-327 -328 0
329 330 0
-329 -330 0
331 332 0
-331 -332 0
333 334 0
-333 -334 0
335 336 0
-335 -336 0
337 338 0
-337 -338 0
339 340 0
-339 -340 0
341 342 0
-341 -342 0
343 344 0
-343 -344 0
345 346 0
-345 -346 0
347 348 0
-347 -348 0
349 350 0
-349 -350 0
351 352 0
-351 -352 0
353 354 0
-353 -354 0
355 356 0
-355 -356 0
357 358 0
-357 -358 0
359 360 0
-359 -360 0
361 362 0
-361 -362 0
363 364 0
-363 -364 0
365 366 0
-365 -366 0
367 368 0
-367 -368 0
369 370 0
-369 -370 0
371 372 0
-371 -372 0
373 374 0
-373 -374 0
375 376 0
-375 -376 0
377 378 0
-377 -378 0
379 380 0
-379 -380 0
381 382 0
-381 -382 0
383 384 0
-383 -384 0
385 386 0
-385 -386 0
387 388 0
-387 -388 0
389 390 0
-389 -390 0
391 392 0
-391 -392 0
393 394 0
-393 -394 0
395 396 0
-395 -396 0
397 398 0
-397 -398 0
399 400 0
-399 -400 0
401 402 0
-401 -402 0
403 404 0
-403 -404 0
405 406 0
-405 -406 0
407 408 0
-407 -408 0
409 410 0
-409 -410 0
411 412 0
-411 -412 0
413 414 0
-413 -414 0
415 416 0
-415 -416 0
417 418 0
-417 -418 0
419 420 0
-419 -420 0
421 422 0
-421 -422 0
423 424 0
-423 -424 0
425 426 0
-425 -426 0
427 428 0
-427 -428 0
429 430 0
-429 -430 0
431 432 0
-431 -432 0
433 434 0
-433 -434 0
435 436 0
-435 -436 0
437 438 0
-437 -438 0
439 440 0
-439 -440 0
441 442 0
-441 -442 0
443 444 0
-443 -444 0
445 446 0
-445 -446 0
447 448 0
-447 -448 0
449 450 0
-449 -450 0
451 452 0
-451 -452 0
453 454 0
-453 -454 0
455 456 0
-455 -456 0
457 458 0
-457 -458 0
459 460 0
-459 -460 0
461 462 0
-461 -462 0
463 464 0
-463 -464 0
465 466 0
-465 -466 0
467 468 0
-467 -468 0
469 470 0
-469 -470 0
471 472 0
-471 -472 0
473 474 0
-473 -474 0
475 476 0
-475 -476 0
477 478 0
-477 -478 0
479 480 0
-479 -480 0
481 482 0
-481 -482 0
483 484 0
-483 -484 0
485 486 0
-485 -486 0
487 488 0
-487 -488 0
489 490 0
-489 -490 0
491 492 0
-491 -492 0
493 494 0
-493 -494 0
495 496 0
-495 -496 0
497 498 0
-497 -498 0
499 500 0
-499 -500 0
501 502 0
-501 -502 0
503 504 0
-503 -504 0
505 506 0
-505 -506 0
507 508 0
-507 -508 0
509 510 0
-509 -510 0
511 512 0
-511 -512 0
513 514 0
-513 -514 0
515 516 0
-515 -516 0
517 518 0
-517 -518 0
519 520 0
-519 -520 0
521 522 0
-521 -522 0
523 524 0
-523 -524 0
525 526 0
-525 -526 0
527 528 0
-527 -528 0
529 530 0
-529 -530 0
531 532 0
-531 -532 0
533 534 0
-533 -534 0
535 536 0
-535 -536 0
537 538 0
-537 -538 0
539 540 0
-539 -540 0
541 542 0
-541 -542 0
543 544 0
-543 -544 0
545 546 0
-545 -546 0
547 548 0
-547 -548 0
549 550 0
-549 -550 0
551 552 0
-551 -552 0
553 554 0
-553 -554 0
555 556 0
-555 -556 0
557 558 0
-557 -558 0
559 560 0
-559 -560 0
561 562 0
-561 -562 0
563 564 0
-563 -564 0
565 566 0
-565 -566 0
567 568 0
-567 -568 0
569 570 0
-569 -570 0
571 572 0
-571 -572 0
573 574 0
-573 -574 0
575 576 0
-575 -576 0
577 578 0
-577 -578 0
579 580 0
-579 -580 0
581 582 0
-581 -582 0
583 584 0
-583 -584 0
585 586 0
-585 -586 0
587 588 0
-587 -588 0
589 590 0
-589 -590 0
591 592 0
-591 -592 0
593 594 0
-593 -594 0
595 596 0
-595 -596 0
597 598 0
-597 -598 0
599 600 0
-599 -600 0
601 602 0
-601 -602 0
603 604 0
-603 -604 0
605 606 0
-605 -606 0
607 608 0
-607 -608 0
609 610 0
-609 -610 0
611 612 0
-611 -612 0
613 614 0
-613 -614 0
615 616 0
-615 -616 0
617 618 0
-617 -618 0
619 620 0
-619 -620 0
621 622 0
-621 -622 0
623 624 0
-623 -624 0
625 626 0
-625 -626 0
627 628 0
-627 -628 0
629 630 0
-629 -630 0
631 632 0
-631 -632 0
633 634 0
-633 -634 0
635 636 0
-635 -636 0
637 638 0
-637 -638 0
639 640 0
-639 -640 0
641 642 0
-641 -642 0
643 644 0
-643 -644 0
645 646 0
-645 -646 0
647 648 0
-647 -648 0
649 650 0
-649 -650 0
651 652 0
-651 -652 0
653 654 0
-653 -654 0
655 656 0
-655 -656 0
657 658 0
-657 -658 0
659 660 0
-659 -660 0
661 662 0
-661 -662 0
663 664 0
-663 -664 0
665 666 0
-665 -666 0
667 668 0
-667 -668 0
669 670 0
-669 -670 0
671 672 0
-671 -672 0
673 674 0
-673 -674 0
675 676 0
-675 -676 0
677 678 0
-677 -678 0
679 680 0
-679 -680 0
681 682 0
-681 -682 0
683 684 0
-683 -684 0
685 686 0
-685 -686 0
687 688 0
-687 -688 0
689 690 0
-689 -690 0
691 692 0
-691 -692 0
693 694 0
-693 -694 0
695 696 0
-695 -696 0
697 698 0
-697 -698 0
699 700 0
-699 -700 0
701 702 0
-701 -702 0
703 704 0
-703 -704 0
705 706 0
-705 -706 0
707 708 0
-707 -708 0
709 710 0
-709 -710 0
711 712 0
-711 -712 0
713 714 0
-713 -714 0
715 716 0
-715 -716 0
717 718 0
-717 -718 0
719 720 0
-719 -720 0
721 722 0
-721 -722 0
723 724 0
-723 -724 0
725 726 0
-725 -726 0
727 728 0
-727 -728 0
729 730 0
-729 -730 0
731 732 0
-731 -732 0
733 734 0
-733 -734 0
735 736 0
-735 -736 0
737 738 0
-737 -738 0
739 740 0
-739 -740 0
741 742 0
-741 -742 0
743 744 0
-743 -744 0
745 746 0
-745 -746 0
747 748 0
-747 -748 0
749 750 0
-749 -750 0
751 752 0
-751 -752 0
753 754 0
-753 -754 0
755 756 0
-755 -756 0
757 758 0
-757 -758 0
759 760 0
-759 -760 0
761 762 0
-761 -762 0
763 764 0
-763 -764 0
765 766 0
-765 -766 0
767 768 0
-767 -768 0
769 770 0
-769 -770 0
771 772 0
-771 -772 0
773 774 0
-773 -774 0
775 776 0
-775 -776 0
777 778 0
-777 -778 0
779 780 0
-779 -780 0
781 782 0
-781 -782 0
783 784 0
-783 -784 0
785 786 0
-785 -786 0
787 788 0
-787 -788 0
789 790 0
-789 -790 0
791 792 0
-791 -792 0
793 794 0
-793 -794 0
795 796 0
-795 -796 0
797 798 0
-797 -798 0
799 800 0
-799 -800 0
-15 -355 -1 0
-15 -356 -2 0
-16 -355 -2 0
-16 -356 -2 0
-3 -349 -6 0
-3 -350 -6 0
-4 -349 -6 0
-4 -350 -5 0
-5 -385 -8 0
-5 -386 -7 0
-6 -385 -8 0
-6 -386 -8 0
-485 -399 -9 0
-485 -400 -10 0
-486 -399 -9 0
-486 -400 -10 0
-9 -397 -11 0
-9 -398 -11 0
-10 -397 -12 0
-10 -398 -12 0
-11 -395 -14 0
-11 -396 -13 0
-12 -395 -14 0
-12 -396 -13 0
-17 -381 -20 0
-17 -382 -20 0
-18 -381 -19 0
-18 -382 -20 0
-141 -455 -26 0
-141 -456 -26 0
-142 -455 -25 0
-142 -456 -26 0
-35 -467 -29 0
-35 -468 -29 0
-36 -467 -30 0
-36 -468 -29 0
-23 -347 -33 0
-23 -348 -34 0
-24 -347 -34 0
-24 -348 -34 0
-31 -441 -37 0
-31 -442 -37 0
-32 -441 -37 0
-32 -442 -38 0
-41 -487 -44 0
-41 -488 -43 0
-42 -487 -44 0
-42 -488 -43 0
-55 -513 -49 0
-55 -514 -50 0
-56 -513 -49 0
-56 -514 -49 0
-59 -509 -54 0
-59 -510 -53 0
-60 -509 -53 0
-60 -510 -54 0
-761 -63 0
-762 -64 0
-65 -765 -68 0
-65 -766 -68 0
-66 -765 -67 0
-66 -766 -68 0
-67 -753 -70 0
-67 -754 -70 0
-68 -753 -70 0
-68 -754 -69 0
-69 -755 -72 0
-69 -756 -71 0
-70 -755 -72 0
-70 -756 -72 0
-71 -757 -74 0
-71 -758 -73 0
-72 -757 -74 0
-72 -758 -73 0
-73 -759 -76 0
-73 -760 -75 0
-74 -759 -76 0
-74 -760 -75 0
-77 -751 -79 0
-77 -752 -79 0
-78 -751 -80 0
-78 -752 -80 0
-99 -537 -81 0
-99 -538 -81 0
-100 -537 -81 0
-100 -538 -82 0
-81 -535 -83 0
-81 -536 -84 0
-82 -535 -84 0
-82 -536 -84 0
-437 -525 -86 0
-437 -526 -86 0
-438 -525 -85 0
-438 -526 -86 0
-85 -523 -87 0
-85 -524 -87 0
-86 -523 -87 0
-86 -524 -88 0
-89 -519 -91 0
-89 -520 -92 0
-90 -519 -91 0
-90 -520 -91 0
-91 -533 -94 0
-91 -534 -93 0
-92 -533 -93 0
-92 -534 -93 0
-111 -277 -101 0
-111 -278 -102 0
-112 -277 -102 0
-112 -278 -102 0
-107 -267 -110 0
-107 -268 -109 0
-108 -267 -110 0
-108 -268 -109 0
-115 -271 -118 0
-115 -272 -117 0
-116 -271 -118 0
-116 -272 -118 0
-123 -119 0
-124 -120 0
-131 -126 0
-132 -125 0
-129 -131 0
-130 -132 0
-127 -133 0
-128 -134 0
-43 -61 -138 0
-43 -62 -137 0
-44 -61 -138 0
-44 -62 -138 0
-139 -299 -141 0
-139 -300 -141 0
-140 -299 -141 0
-140 -300 -142 0
-143 -289 -146 0
-143 -290 -146 0
-144 -289 -146 0
-144 -290 -145 0
-145 -287 -148 0
-145 -288 -147 0
-146 -287 -148 0
-146 -288 -148 0
-147 -279 -149 0
-147 -280 -150 0
-148 -279 -149 0
-148 -280 -149 0
-149 -291 -152 0
-149 -292 -152 0
-150 -291 -152 0
-150 -292 -151 0
-153 -295 -156 0
-153 -296 -155 0
-154 -295 -156 0
-154 -296 -155 0
-165 -307 -168 0
-165 -308 -168 0
-166 -307 -168 0
-166 -308 -167 0
-173 -313 -169 0
-173 -314 -170 0
-174 -313 -169 0
-174 -314 -170 0
-169 -311 -171 0
-169 -312 -172 0
-170 -311 -172 0
-170 -312 -172 0
-179 -21 -177 0
-179 -22 -178 0
-180 -21 -177 0
-180 -22 -178 0
-335 -25 -181 0
-335 -26 -181 0
-336 -25 -182 0
-336 -26 -181 0
-187 -29 -185 0
-187 -30 -185 0
-188 -29 -185 0
-188 -30 -186 0
-797 -19 -192 0
-797 -20 -192 0
-798 -19 -191 0
-798 -20 -191 0
-183 -37 -197 0
-183 -38 -198 0
-184 -37 -197 0
-184 -38 -197 0
-193 -695 -199 0
-193 -696 -199 0
-194 -695 -200 0
-194 -696 -199 0
-201 -699 -204 0
-201 -700 -204 0
-202 -699 -204 0
-202 -700 -203 0
-219 -331 -221 0
-219 -332 -222 0
-220 -331 -221 0
-220 -332 -222 0
-19 -341 -224 0
-19 -342 -224 0
-20 -341 -223 0
-20 -342 -223 0
-227 -11 -225 0
-227 -12 -226 0
-228 -11 -226 0
-228 -12 -225 0
-239 -7 -237 0
-239 -8 -238 0
-240 -7 -238 0
-240 -8 -238 0
-233 -5 -239 0
-233 -6 -240 0
-234 -5 -239 0
-234 -6 -240 0
-243 -571 -242 0
-243 -572 -241 0
-244 -571 -242 0
-244 -572 -241 0
-247 -575 -245 0
-247 -576 -245 0
-248 -575 -245 0
-248 -576 -246 0
-241 -573 -248 0
-241 -574 -248 0
-242 -573 -248 0
-242 -574 -247 0
-251 -579 -249 0
-251 -580 -250 0
-252 -579 -250 0
-252 -580 -250 0
-275 -577 -251 0
-275 -578 -252 0
-276 -577 -251 0
-276 -578 -252 0
-255 -583 -253 0
-255 -584 -254 0
-256 -583 -253 0
-256 -584 -254 0
-245 -585 -260 0
-245 -586 -259 0
-246 -585 -259 0
-246 -586 -260 0
-263 -131 -261 0
-263 -132 -261 0
-264 -131 -262 0
-264 -132 -261 0
-271 -129 -264 0
-271 -130 -263 0
-272 -129 -264 0
-272 -130 -263 0
-261 -125 -268 0
-261 -126 -267 0
-262 -125 -268 0
-262 -126 -268 0
-123 -269 0
-124 -270 0
-273 -121 -271 0
-273 -122 -272 0
-274 -121 -272 0
-274 -122 -272 0
-265 -133 -277 0
-265 -134 -278 0
-266 -133 -278 0
-266 -134 -277 0
-173 -286 0
-174 -285 0
-279 -167 -291 0
-279 -168 -292 0
-280 -167 -292 0
-280 -168 -291 0
-83 -353 -294 0
-83 -354 -293 0
-84 -353 -293 0
-84 -354 -294 0
-297 -163 -295 0
-297 -164 -296 0
-298 -163 -295 0
-298 -164 -295 0
-301 -159 -299 0
-301 -160 -300 0
-302 -159 -300 0
-302 -160 -300 0
-561 -111 -303 0
-561 -112 -303 0
-562 -111 -303 0
-562 -112 -304 0
-543 -283 -306 0
-543 -284 -305 0
-544 -283 -306 0
-544 -284 -306 0
-311 -105 -309 0
-311 -106 -310 0
-312 -105 -309 0
-312 -106 -309 0
-313 -117 -312 0
-313 -118 -312 0
-314 -117 -312 0
-314 -118 -311 0
-315 -115 -314 0
-315 -116 -313 0
-316 -115 -313 0
-316 -116 -313 0
-303 -101 -319 0
-303 -102 -320 0
-304 -101 -320 0
-304 -102 -320 0
-589 -147 -321 0
-589 -148 -321 0
-590 -147 -322 0
-590 -148 -322 0
-343 -659 -323 0
-343 -660 -324 0
-344 -659 -323 0
-344 -660 -323 0
-143 -326 0
-144 -325 0
-329 -155 -328 0
-329 -156 -328 0
-330 -155 -327 0
-330 -156 -328 0
-713 -151 -332 0
-713 -152 -331 0
-714 -151 -331 0
-714 -152 -331 0
-213 -589 -339 0
-213 -590 -339 0
-214 -589 -340 0
-214 -590 -339 0
-363 -99 -361 0
-363 -100 -361 0
-364 -99 -362 0
-364 -100 -361 0
-357 -97 -363 0
-357 -98 -363 0
-358 -97 -363 0
-358 -98 -364 0
-371 -91 -370 0
-371 -92 -370 0
-372 -91 -369 0
-372 -92 -370 0
-365 -89 -372 0
-365 -90 -372 0
-366 -89 -371 0
-366 -90 -371 0
-375 -83 -373 0
-375 -84 -373 0
-376 -83 -373 0
-376 -84 -374 0
-361 -81 -376 0
-361 -82 -375 0
-362 -81 -376 0
-362 -82 -376 0
-203 -705 -377 0
-203 -706 -378 0
-204 -705 -378 0
-204 -706 -378 0
-377 -703 -380 0
-377 -704 -380 0
-378 -703 -380 0
-378 -704 -379 0
-383 -731 -381 0
-383 -732 -381 0
-384 -731 -382 0
-384 -732 -382 0
-385 -729 -384 0
-385 -730 -383 0
-386 -729 -384 0
-386 -730 -384 0
-689 -388 0
-690 -387 0
-387 -693 -390 0
-387 -694 -390 0
-388 -693 -389 0
-388 -694 -390 0
-403 -613 -402 0
-403 -614 -402 0
-404 -613 -402 0
-404 -614 -401 0
-405 -611 -404 0
-405 -612 -404 0
-406 -611 -404 0
-406 -612 -403 0
-409 -615 -408 0
-409 -616 -408 0
-410 -615 -408 0
-410 -616 -407 0
-413 -619 -412 0
-413 -620 -412 0
-414 -619 -411 0
-414 -620 -411 0
-415 -625 -414 0
-415 -626 -413 0
-416 -625 -413 0
-416 -626 -414 0
-417 -623 -415 0
-417 -624 -415 0
-418 -623 -415 0
-418 -624 -416 0
-419 -629 -417 0
-419 -630 -417 0
-420 -629 -418 0
-420 -630 -417 0
-317 -627 -419 0
-317 -628 -420 0
-318 -627 -420 0
-318 -628 -419 0
-425 -641 -422 0
-425 -642 -421 0
-426 -641 -422 0
-426 -642 -421 0
-465 -777 -442 0
-465 -778 -442 0
-466 -777 -442 0
-466 -778 -441 0
-333 -663 -443 0
-333 -664 -443 0
-334 -663 -443 0
-334 -664 -444 0
-443 -661 -446 0
-443 -662 -446 0
-444 -661 -446 0
-444 -662 -445 0
-665 -447 0
-666 -448 0
-613 -563 -452 0
-613 -564 -451 0
-614 -563 -452 0
-614 -564 -452 0
-299 -781 -455 0
-299 -782 -456 0
-300 -781 -456 0
-300 -782 -455 0
-459 -787 -458 0
-459 -788 -458 0
-460 -787 -457 0
-460 -788 -458 0
-347 -791 -461 0
-347 -792 -462 0
-348 -791 -462 0
-348 -792 -461 0
-345 -653 -464 0
-345 -654 -464 0
-346 -653 -463 0
-346 -654 -463 0
-467 -795 -465 0
-467 -796 -466 0
-468 -795 -466 0
-468 -796 -466 0
-475 -677 -470 0
-475 -678 -469 0
-476 -677 -470 0
-476 -678 -470 0
-477 -683 -479 0
-477 -684 -480 0
-478 -683 -480 0
-478 -684 -480 0
-687 -481 0
-688 -482 0
-483 -671 -485 0
-483 -672 -486 0
-484 -671 -485 0
-484 -672 -485 0
-489 -543 -488 0
-489 -544 -487 0
-490 -543 -488 0
-490 -544 -488 0
-515 -541 -489 0
-515 -542 -490 0
-516 -541 -490 0
-516 -542 -490 0
-497 -235 -491 0
-497 -236 -492 0
-498 -235 -492 0
-498 -236 -492 0
-495 -229 -497 0
-495 -230 -497 0
-496 -229 -497 0
-496 -230 -498 0
-751 -227 -499 0
-751 -228 -500 0
-752 -227 -499 0
-752 -228 -500 0
-509 -559 -507 0
-509 -560 -508 0
-510 -559 -507 0
-510 -560 -507 0
-503 -557 -510 0
-503 -558 -509 0
-504 -557 -509 0
-504 -558 -510 0
-513 -547 -511 0
-513 -548 -512 0
-514 -547 -512 0
-514 -548 -512 0
-507 -545 -513 0
-507 -546 -514 0
-508 -545 -513 0
-508 -546 -514 0
-523 -53 -521 0
-523 -54 -521 0
-524 -53 -522 0
-524 -54 -521 0
-531 -45 -529 0
-531 -46 -529 0
-532 -45 -529 0
-532 -46 -530 0
-537 -43 -535 0
-537 -44 -536 0
-538 -43 -536 0
-538 -44 -536 0
-527 -41 -538 0
-527 -42 -537 0
-528 -41 -538 0
-528 -42 -538 0
-541 -195 -543 0
-541 -196 -544 0
-542 -195 -544 0
-542 -196 -543 0
-559 -189 -545 0
-559 -190 -545 0
-560 -189 -546 0
-560 -190 -545 0
-545 -187 -547 0
-545 -188 -547 0
-546 -187 -547 0
-546 -188 -548 0
-547 -185 -550 0
-547 -186 -550 0
-548 -185 -549 0
-548 -186 -550 0
-549 -183 -551 0
-549 -184 -552 0
-550 -183 -551 0
-550 -184 -551 0
-555 -177 -557 0
-555 -178 -558 0
-556 -177 -558 0
-556 -178 -558 0
-257 -281 -564 0
-257 -282 -564 0
-258 -281 -564 0
-258 -282 -563 0
-401 -451 -565 0
-401 -452 -565 0
-402 -451 -565 0
-402 -452 -566 0
-727 -237 -568 0
-727 -238 -568 0
-728 -237 -567 0
-728 -238 -568 0
-583 -569 0
-584 -570 0
-571 -573 0
-572 -574 0
-573 -575 0
-574 -576 0
-135 -577 0
-136 -578 0
-579 -581 0
-580 -582 0
-581 -584 0
-582 -583 0
-575 -585 0
-576 -586 0
-325 -145 -589 0
-325 -146 -589 0
-326 -145 -589 0
-326 -146 -590 0
-593 -469 -600 0
-593 -470 -600 0
-594 -469 -599 0
-594 -470 -599 0
-481 -601 0
-482 -602 0
-611 -257 -614 0
-611 -258 -614 0
-612 -257 -613 0
-612 -258 -613 0
-619 -241 -622 0
-619 -242 -622 0
-620 -241 -622 0
-620 -242 -621 0
-629 -255 -623 0
-629 -256 -623 0
-630 -255 -624 0
-630 -256 -624 0
-103 -251 -628 0
-103 -252 -628 0
-104 -251 -628 0
-104 -252 -627 0
-627 -249 -630 0
-627 -250 -629 0
-628 -249 -630 0
-628 -250 -629 0
-567 -797 -632 0
-567 -798 -631 0
-568 -797 -632 0
-568 -798 -632 0
-637 -463 -635 0
-637 -464 -635 0
-638 -463 -636 0
-638 -464 -635 0
-641 -343 -640 0
-641 -344 -640 0
-642 -343 -639 0
-642 -344 -639 0
-647 -445 -646 0
-647 -446 -645 0
-648 -445 -646 0
-648 -446 -645 0
-649 -443 -648 0
-649 -444 -648 0
-650 -443 -647 0
-650 -444 -647 0
-661 -205 -656 0
-661 -206 -655 0
-662 -205 -655 0
-662 -206 -655 0
-659 -221 -657 0
-659 -222 -658 0
-660 -221 -658 0
-660 -222 -658 0
-665 -339 -670 0
-665 -340 -670 0
-666 -339 -669 0
-666 -340 -670 0
-675 -377 -674 0
-675 -378 -673 0
-676 -377 -673 0
-676 -378 -674 0
-681 -199 -679 0
-681 -200 -679 0
-682 -199 -680 0
-682 -200 -680 0
-683 -193 -681 0
-683 -194 -682 0
-684 -193 -682 0
-684 -194 -682 0
-685 -391 -684 0
-685 -392 -683 0
-686 -391 -683 0
-686 -392 -683 0
-689 -421 -693 0
-689 -422 -694 0
-690 -421 -693 0
-690 -422 -693 0
-701 -429 -700 0
-701 -430 -700 0
-702 -429 -699 0
-702 -430 -700 0
-707 -497 -709 0
-707 -498 -710 0
-708 -497 -709 0
-708 -498 -709 0
-79 -499 -712 0
-79 -500 -711 0
-80 -499 -711 0
-80 -500 -711 0
-715 -567 -717 0
-715 -568 -718 0
-716 -567 -718 0
-716 -568 -718 0
-719 -493 -722 0
-719 -494 -721 0
-720 -493 -721 0
-720 -494 -721 0
-723 -633 -725 0
-723 -634 -725 0
-724 -633 -726 0
-724 -634 -725 0
-739 -371 -733 0
-739 -372 -733 0
-740 -371 -733 0
-740 -372 -734 0
-733 -369 -736 0
-733 -370 -735 0
-734 -369 -735 0
-734 -370 -735 0
-747 -363 -742 0
-747 -364 -742 0
-748 -363 -742 0
-748 -364 -741 0
-741 -361 -744 0
-741 -362 -743 0
-742 -361 -743 0
-742 -362 -744 0
-749 -607 -751 0
-749 -608 -752 0
-750 -607 -751 0
-750 -608 -752 0
-765 -595 -753 0
-765 -596 -754 0
-766 -595 -754 0
-766 -596 -753 0
-755 -599 -758 0
-755 -600 -757 0
-756 -599 -758 0
-756 -600 -758 0
-761 -605 -763 0
-761 -606 -764 0
-762 -605 -764 0
-762 -606 -763 0
-711 -501 -768 0
-711 -502 -768 0
-712 -501 -767 0
-712 -502 -767 0
-39 -769 -772 0
-39 -770 -771 0
-40 -769 -771 0
-40 -770 -771 0
-777 -401 -779 0
-777 -402 -779 0
-778 -401 -780 0
-778 -402 -780 0
-781 -417 -784 0
-781 -418 -783 0
-782 -417 -783 0
-782 -418 -783 0
-793 -405 -795 0
-793 -406 -795 0
-794 -405 -795 0
-794 -406 -796 0
